12 49 
51 80 
74 65 
43 20 
72 76 
86 88 
92 81 
81 60 
8 32 
3 96 
68 55 
51 38 
90 47 
61 40 
1 99 
16 66 
48 67 
46 74 
84 89 
95 57 
18 81 
97 62 
14 30 
22 74 
62 77 
70 82 
84 73 
21 75 
73 34 
67 74 
